%nprocshared=4
%mem=1GB
# opt freq pm6 pop=full geom=connectivity

Energy Calculation(GC)

0 1
 C                 -1.10071034    0.28105880    0.85831209
 O                 -1.38343354    1.31197706    0.32465073
 O                  0.11551609   -0.38979890    0.63307738
 C                  1.33713112    0.19492855    0.24861171
 O                  1.46780948    1.36845917    0.06763229
 O                 -1.83771529   -0.50823357    1.79572409
 O                  2.28501067   -0.87042073    0.14158238
 C                 -3.22561760   -0.17351389    1.71454577
 C                 -3.43126492    1.27984547    2.18043818
 H                 -3.52388254    1.91831065    1.32680818
 H                 -4.32134807    1.34252827    2.77096578
 H                 -2.59144886    1.58849870    2.76724495
 C                 -3.70423386   -0.31825272    0.25798230
 H                 -3.11741734   -1.06297539   -0.23793555
 H                 -4.73355531   -0.61031500    0.24813485
 H                 -3.59427384    0.61796704   -0.24827985
 C                 -4.03601741   -1.12166725    2.61779400
 H                 -3.69172329   -1.03376655    3.62706851
 H                 -5.07249113   -0.86016740    2.57046484
 H                 -3.90690755   -2.12984943    2.28342993
 C                  3.55132179   -0.34378268   -0.26339726
 C                  3.40477945    0.35199412   -1.62942068
 H                  3.29753866    1.40647725   -1.48291219
 H                  4.27485769    0.16092155   -2.22217284
 H                  2.54012362   -0.02798735   -2.13229680
 C                  4.04142203    0.67543870    0.78187281
 H                  3.58549372    0.46466066    1.72664897
 H                  5.10505712    0.60651795    0.87584265
 H                  3.77423930    1.66329755    0.46938555
 C                  4.57148299   -1.49163240   -0.37877559
 H                  4.23017232   -2.20060853   -1.10386860
 H                  5.51859001   -1.09778451   -0.68336076
 H                  4.67449962   -1.97403578    0.57073721

 1 2 2.0 3 1.0 6 1.0
 2
 3 4 1.0
 4 5 2.0 7 1.0
 5
 6 8 1.0
 7 21 1.0
 8 9 1.0 13 1.0 17 1.0
 9 10 1.0 11 1.0 12 1.0
 10
 11
 12
 13 14 1.0 15 1.0 16 1.0
 14
 15
 16
 17 18 1.0 19 1.0 20 1.0
 18
 19
 20
 21 22 1.0 26 1.0 30 1.0
 22 23 1.0 24 1.0 25 1.0
 23
 24
 25
 26 27 1.0 28 1.0 29 1.0
 27
 28
 29
 30 31 1.0 32 1.0 33 1.0
 31
 32
 33

