%nprocshared=4
%mem=1GB
# opt freq pm6

Energy Calculation(GC)

0 1
 C                 -3.02578504    1.54534631   -0.67047136
 O                 -4.25555575    1.76567963   -0.51984670
 O                 -2.55831321    0.21856860   -0.92743633
 H                 -3.30469983   -0.38457291   -0.95440525
 C                 -2.02080275    2.70853752   -0.57775250
 H                 -1.32957437    2.52018132    0.21699606
 H                 -1.48759768    2.79369541   -1.50151681
 N                 -2.74858492    3.96915077   -0.31019440
 H                 -3.24690796    3.88956343    0.55313636
 H                 -3.39459292    4.14518509   -1.05294981
 ?s                -2.25684021    3.11738506   -0.49097690
 ?s                -2.54696959    3.61992683   -0.38431523

