%chk=D:\mindmap\gaussian\calculate\ch3n2_gongzhen _dihedral_160\energy.chk
%nprocshared=4
%mem=1GB
# apfd/6-311+g(2d,p) pop=full geom=connectivity int=ultrafine

Energy Calculation(GC)

0 1
 N                 -1.75309684    0.20117700   -1.10635431
 N                 -2.32427597    0.41287716   -2.15763584
 C                 -1.15199658   -0.02161901    0.00000000
 H                 -0.08406260    0.04564462    0.00333325
 H                 -1.68910430    0.01309349    0.92483990

 1 2 1.5 3 1.5
 2
 3 4 1.0 5 1.0
 4
 5

