%chk=D:\mindmap\gaussian\calculate\opt_freq\gly\gly.chk
%nprocshared=4
%mem=1GB
# opt freq b3lyp/6-311G** 

opt freq(GC)

0 1
 C                  0.92918800   -0.85819540    1.79523443
 O                  2.09754043   -1.09355109    1.97912345
 O                 -0.02457090   -1.81429378    2.05322742
 H                  0.36004082   -2.65470384    2.42254349
 C                  0.26176711    0.37913675    1.23881181
 H                 -0.41384151    0.82904211    2.01152519
 N                  1.31907737    1.37202749    0.91169603
 H                  1.95352608    0.98815029    0.21714062
 H                  1.86809288    1.59891541    1.74028119
 C                 -0.63427597   -0.04101633    0.05890580
 H                 -0.03503464   -0.50484864   -0.69652084
 O                 -1.27795255    1.11396979   -0.48569270
 H                 -1.90773403    0.84291571   -1.15763389
 C                 -1.69958795   -1.03742872    0.55274052
 C                 -3.05448631   -0.73003789    0.42533271
 C                 -1.30998573   -2.24724529    1.12728566
 C                 -4.01948660   -1.63202456    0.87301141
 H                 -3.36130469    0.22417666   -0.02697122
 C                 -2.27516896   -3.15004700    1.57425354
 H                 -0.24216019   -2.48975516    1.22761816
 C                 -3.62975411   -2.84259077    1.44734109
 H                 -5.08744246   -1.38953127    0.77319253
 H                 -1.96769418   -4.10403732    2.02684159
 H                 -4.39080324   -3.55364324    1.80019367

