%chk=D:\mindmap\gaussian\calculate\ch3n2_gongzhen\energy.chk
%nprocshared=4
%mem=1GB
# apfd/6-311+g(2d,p) geom=connectivity pop=full int=ultrafine

Energy Calculation(GC)

0 1
 N                  0.12658055   -0.00678779    0.00000000
 N                  1.34151127    0.00731054    0.00000000
 C                 -1.15199658   -0.02161901    0.00000000
 H                 -1.68233161    0.06302740   -0.92552592
 H                 -1.68233161    0.06302740    0.92552592

 1 2 1.5 3 1.5
 2
 3 4 1.0 5 1.0
 4
 5
 

 
