%nprocshared=4
%mem=1GB
%chk=D:\mindmap\gaussian\calculate\opt_freq\qm2\1924-2.chk
# opt freq pm6 pop=full geom=connectivity scrf=(solvent=water)

Energy Calculation(GC)

0 1
 C                 -0.37672266   -0.26043398    0.02906456
 C                  1.55563934    1.07895602    0.02906456
 C                  0.37908434    2.04912302    0.02906356
 C                 -0.87226666    1.18176502    0.02906356
 H                 -0.70088366   -0.81941298   -0.88606744
 H                 -0.70088366   -0.81941298    0.94419656
 H                  2.19247834    1.18645502    0.94442456
 H                  2.19247834    1.18645502   -0.88629544
 H                  0.41047334    2.70831402   -0.87284044
 H                 -1.50054566    1.38371902    0.93096656
 H                 -1.50054566    1.38371802   -0.87284044
 N                  1.05364834   -0.26043398    0.02906456
 O                  0.41924618    2.89260487    1.18311096
 H                  0.45317845    3.81152835    0.90737878
 H                  1.99744700   -0.53262477   -0.18015958

 1 4 1.0 5 1.0 6 1.0 12 1.0
 2 3 1.0 7 1.0 8 1.0 12 1.0
 3 4 1.0 9 1.0 13 1.0
 4 10 1.0 11 1.0
 5
 6
 7
 8
 9
 10
 11
 12 15 1.0
 13 14 1.0
 14
 15

