%nprocshared=4
%mem=1GB
# opt=(calcfc,ts,noeigen) freq pm6 geom=connectivity

Energy Calculation(GC)

-1 1
 C                 -3.24314380    0.46068868   -0.25054236
 H                 -3.13518709   -0.60067810   -0.33267578
 H                 -3.02753954    0.91526363   -1.19488152
 H                 -4.28010259    0.82870018    0.22975614
 C                 -2.33481184    0.95728126    0.73598127
 H                 -2.44140361    2.01889183    0.81673520
 H                 -2.55165927    0.50415849    1.68073358
 Br                -0.36611109    0.49231437    0.17204581
 O                 -5.44372487    0.49823526   -0.33838660
 H                 -5.95438140    1.28064097   -0.47019032

 1 2 1.0 3 1.0 4 1.0 5 1.0
 2
 3
 4
 5 6 1.0 7 1.0 8 1.0
 6
 7
 8
 9 10 1.0
 10

