
%nprocshared=4
%mem=1GB
# opt freq pm6

opt freq(GC)

0 1
 O                 -1.34438312    0.11970534    0.00000000
 H                 -0.38438312    0.11970534    0.00000000
 H                 -1.66483771    1.02464117    0.00000000

 







 