%nprocshared=4
%mem=1GB
%chk=D:\mindmap\gaussian\calculate\opt_freq\QM1\QM1.chk
# opt freq b3lyp/sto-3g  geom=connectivity

Energy Calculation(GC)

0 1
 C                 -1.41040397    0.08456676    0.00000000
 N                 -0.43264437   -0.86231919    0.00000000
 C                  0.83472013   -0.39868645    0.00000000
 C                  1.13303268    0.97771455    0.00000000
 C                  0.03968552    1.86541309    0.00000000
 N                 -1.23930786    1.43491556    0.00000000
 H                  0.18768260    2.96009580    0.00000000
 Cl                -3.07099016   -0.49857432    0.00000000
 Cl                 2.10920210   -1.61248038    0.00000000
 C                  2.58606653    1.48790335    0.00000000
 H                  3.08969827    1.13014271    0.87364626
 H                  3.08969827    1.13014271   -0.87364626
 H                  2.58838321    2.55790085    0.00000000

 1 2 2.0 6 2.0 8 1.0
 2 3 2.0
 3 4 1.5 9 1.0
 4 5 1.5 10 1.0
 5 6 2.0 7 1.0
 6
 7
 8
 9
 10 11 1.0 12 1.0 13 1.0
 11
 12
 13

