%chk=D:\mindmap\gaussian\calculate\ch3n2_dihedral\energy.chk
%nprocshared=4
%mem=1GB
# apfd/6-311+g(2d,p) geom=connectivity pop=full int=ultrafine

Energy Calculation(GC)

0 1
 H                 -0.59038406   -1.91571574   -0.48924160
 H                 -0.20603847   -1.15273181    0.85534879
 N                 -0.61650489   -0.23989890   -0.48679369
 N                 -1.12936247    0.76800853   -0.97487930
 C                 -0.17807915   -1.19470718   -0.03652469

 1 5 1.0
 2 5 1.0
 3 4 2.0 5 2.0
 4
 5
 
