%nprocshared=4
%mem=1GB
%chk=D:\mindmap\gaussian\calculate\opt_freq\bencooh\3TO-3G.chk
# opt freq b3lyp/sto-3g

opt freq(GC)

0 1
 C                 -2.51962878   -1.01957516   -0.85513533
 C                 -1.43138169   -1.19545370    0.00000000
 C                 -1.04158742   -0.16406196    0.85411547
 C                 -1.73942756    1.04433908    0.85249625
 C                 -2.82710995    1.22027257   -0.00279986
 C                 -3.21750536    0.18811469   -0.85641067
 H                 -2.82706176   -1.83302319   -1.52813615
 H                 -0.18421805   -0.30284147    1.52861863
 H                 -1.43186788    1.85743192    1.52598227
 H                 -3.37728899    2.17251989   -0.00431728
 H                 -4.07512716    0.32696774   -1.53045347
 C                 -0.66182934   -2.52938991    0.00184158
 O                 -1.01001468   -3.46269615   -0.76710380
 O                  0.45224391   -2.70808300    0.88036850
 H                  0.81873660   -3.58695830    0.75846149

