%chk=D:\mindmap\gaussian\calculate\opt_freq\ch3cocl\ch3cocl.chk
%nprocshared=4
%mem=1GB
# opt freq pm6

opt freq(GC)

0 1
H
C 1 1.07
N 2 1.16 1 180.0





 