%chk=D:\mindmap\gaussian\calculate\opt_freq\ch3cocl\ch3cocl.chk
%nprocshared=4
%mem=1GB
# opt freq apfd/6-311+g(2d,p) pop=full  int=ultrafine

opt freq(GC)

0 1
H
C 1 1.07
N 2 1.16 1 180.0





 