%chk=D:\mindmap\gaussian\calculate\opt_freq\ch3cocl\ch3cocl.chk
%nprocshared=4
%mem=1GB
# opt=vtight freq apfd/6-311+g(2d,p)  geom=connectivity
int=ultrafine

opt freq(GC)

0 1
 C                  0.19885988    0.40142762    0.00000000
 Cl                -0.18660579   -1.31584236    0.00000000
 C                 -0.93586260    1.44258315    0.00000000
 H                 -1.53858665    1.31341739   -0.87429138
 H                 -1.53858665    1.31341739    0.87429138
 H                 -0.51663762    2.42703754    0.00000000
 O                  1.39851572    0.78142291    0.00000000

 1 2 1.0 3 1.0 7 2.0
 2
 3 4 1.0 5 1.0 6 1.0
 4
 5
 6
 7

